Cu Ag 
 1.0000000000000000
     5.1477373670380668    0.0000000000000000    0.0000000000000000
     0.0000000000000000    5.1477373670380668    0.0000000000000000
     0.0000000000000000    0.0000000000000000   35.2599999999999980
  16   1
Selective dynamics
Cartesian
  1.2869343417595167  1.2869343417595167 35.1559999999999917   F   F   F
  3.8608030252785501  1.2869343417595167 35.1559999999999917   F   F   F
  1.2869343417595167  3.8608030252785501 35.1559999999999917   F   F   F
  3.8608030252785501  3.8608030252785501 35.1559999999999917   F   F   F
  0.0000000000000000  0.0000000000000000  1.7159999999999476   F   F   F
  2.5738686835190334  0.0000000000000000  1.7159999999999476   F   F   F
  0.0000000000000000  2.5738686835190334  1.7159999999999476   F   F   F
  2.5738686835190334  2.5738686835190334  1.7159999999999476   F   F   F
  1.2878961299267144  1.2872289836559254  3.5159624275846304   T   T   T
  3.8616921039829721  1.2872723079324297  3.5352058121949561   T   T   T
  1.2878889979490769  3.8611231377867723  3.5160011989069497   T   T   T
  3.8616785455466873  3.8611500030320380  3.5351586986527730   T   T   T
 -0.0075402480230942  0.0005697159748937  5.3025368981217351   T   T   T
  2.5844224062907752  0.0005856329703302  5.3029114292374135   T   T   T
 -0.0074847904031341  2.5744198344521942  5.3025975993953791   T   T   T
  2.5843603645862068  2.5744039896058490  5.3029616729238400   T   T   T
  1.2877956553830758  2.5743443593568340  7.1762984498241700   T   T   T
