Cu Ag 
 1.0000000000000000
     5.1477373670380668    0.0000000000000000    0.0000000000000000
     0.0000000000000000    5.1477373670380668    0.0000000000000000
     0.0000000000000000    0.0000000000000000   35.2599999999999980
  16   1
Selective dynamics
Cartesian
  1.2869343417595167  1.2869343417595167 35.1559999999999917   F   F   F
  3.8608030252785501  1.2869343417595167 35.1559999999999917   F   F   F
  1.2869343417595167  3.8608030252785501 35.1559999999999917   F   F   F
  3.8608030252785501  3.8608030252785501 35.1559999999999917   F   F   F
  0.0000000000000000  0.0000000000000000  1.7159999999999476   F   F   F
  2.5738686835190334  0.0000000000000000  1.7159999999999476   F   F   F
  0.0000000000000000  2.5738686835190334  1.7159999999999476   F   F   F
  2.5738686835190334  2.5738686835190334  1.7159999999999476   F   F   F
  1.2876181093462478  1.2876181093462478  3.5089342192599058   T   T   T
  3.8615552706464231  1.2877126799798295  3.5233214135502511   T   T   T
  1.2877126799798295  3.8615552706464231  3.5233214135502511   T   T   T
  3.8616196796165063  3.8616196796165063  3.5473275174305052   T   T   T
 -0.0077604968402498 -0.0077604968402498  5.3028671559662923   T   T   T
  2.5842156296451559 -0.0076534396762623  5.3029268266332616   T   T   T
 -0.0076534396762623  2.5842156296451559  5.3029268266332616   T   T   T
  2.5841024224621716  2.5841024224621716  5.3029661606136216   T   T   T
  1.2879542444399801  1.2879542444399801  7.1763743350791120   T   T   T
