Cu Ag                                   
   1.00000000000000     
     5.1477373670380668    0.0000000000000000    0.0000000000000000
     0.0000000000000000    5.1477373670380668    0.0000000000000000
     0.0000000000000000    0.0000000000000000   35.2599999999999980
   Cu   Ag
    16     1
Selective dynamics
Direct
  0.2500000000000000  0.2500000000000000  0.9970504821327282   F   F   F
  0.7500000000000000  0.2500000000000000  0.9970504821327282   F   F   F
  0.2500000000000000  0.7500000000000000  0.9970504821327282   F   F   F
  0.7500000000000000  0.7500000000000000  0.9970504821327282   F   F   F
  0.0000000000000000  0.0000000000000000  0.0486670448099815   F   F   F
  0.5000000000000000  0.0000000000000000  0.0486670448099815   F   F   F
  0.0000000000000000  0.5000000000000000  0.0486670448099815   F   F   F
  0.5000000000000000  0.5000000000000000  0.0486670448099815   F   F   F
  0.2502408453771560  0.2499816455682998  0.0999146521812069   T   T   T
  0.7501992937805142  0.2499801066240981  0.1005981341701549   T   T   T
  0.2502197031585273  0.7499782389148004  0.0995088197465584   T   T   T
  0.7501815139607356  0.7499761645122445  0.0999146307395077   T   T   T
 -0.0014219838123075  0.0017289010987672  0.1503745502063862   T   T   T
  0.5020903357436731  0.0017142882372805  0.1503941018673161   T   T   T
 -0.0014212343420728  0.4982041344379773  0.1503763009687322   T   T   T
  0.5020882229268416  0.4982199700341785  0.1503958362233142   T   T   T
  0.2501365113479088  0.7499866832746166  0.2035230449395697   T   T   T
 
  0.00000000E+00  0.00000000E+00  0.00000000E+00
  0.00000000E+00  0.00000000E+00  0.00000000E+00
  0.00000000E+00  0.00000000E+00  0.00000000E+00
  0.00000000E+00  0.00000000E+00  0.00000000E+00
  0.00000000E+00  0.00000000E+00  0.00000000E+00
  0.00000000E+00  0.00000000E+00  0.00000000E+00
  0.00000000E+00  0.00000000E+00  0.00000000E+00
  0.00000000E+00  0.00000000E+00  0.00000000E+00
  0.00000000E+00  0.00000000E+00  0.00000000E+00
  0.00000000E+00  0.00000000E+00  0.00000000E+00
  0.00000000E+00  0.00000000E+00  0.00000000E+00
  0.00000000E+00  0.00000000E+00  0.00000000E+00
  0.00000000E+00  0.00000000E+00  0.00000000E+00
  0.00000000E+00  0.00000000E+00  0.00000000E+00
  0.00000000E+00  0.00000000E+00  0.00000000E+00
  0.00000000E+00  0.00000000E+00  0.00000000E+00
  0.00000000E+00  0.00000000E+00  0.00000000E+00
