Cu Ag 
 1.0000000000000000
     5.1477373670380668    0.0000000000000000    0.0000000000000000
     0.0000000000000000    5.1477373670380668    0.0000000000000000
     0.0000000000000000    0.0000000000000000   35.2599999999999980
  16   1
Selective dynamics
Cartesian
  1.2869343417595167  1.2869343417595167 35.1559999999999917   F   F   F
  3.8608030252785501  1.2869343417595167 35.1559999999999917   F   F   F
  1.2869343417595167  3.8608030252785501 35.1559999999999917   F   F   F
  3.8608030252785501  3.8608030252785501 35.1559999999999917   F   F   F
  0.0000000000000000  0.0000000000000000  1.7159999999999476   F   F   F
  2.5738686835190334  0.0000000000000000  1.7159999999999476   F   F   F
  0.0000000000000000  2.5738686835190334  1.7159999999999476   F   F   F
  2.5738686835190334  2.5738686835190334  1.7159999999999476   F   F   F
  1.2881741505071811  1.2868398579656029  3.5229906359093550   T   T   T
  3.8618289373195211  1.2868319358850300  3.5470902108396616   T   T   T
  1.2880653159183240  3.8606910049271210  3.5086809842636488   T   T   T
  3.8617374114768679  3.8606803264475693  3.5229898798750412   T   T   T
 -0.0073199992059386  0.0088999287900371  5.3022066402771770   T   T   T
  2.5846291829363950  0.0088247056169226  5.3028960318415654   T   T   T
 -0.0073161411300059  2.5646240392592321  5.3022683721574966   T   T   T
  2.5846183067102415  2.5647055567495265  5.3029571852340585   T   T   T
  1.2876370663261716  3.8607344742736873  7.1762225645692279   T   T   T
