Cu Ag                                   
   1.00000000000000     
     5.1477373670380668    0.0000000000000000    0.0000000000000000
     0.0000000000000000    5.1477373670380668    0.0000000000000000
     0.0000000000000000    0.0000000000000000   35.2599999999999980
   Cu   Ag
    16     1
Selective dynamics
Direct
  0.2500000000000000  0.2500000000000000  0.9970504821327282   F   F   F
  0.7500000000000000  0.2500000000000000  0.9970504821327282   F   F   F
  0.2500000000000000  0.7500000000000000  0.9970504821327282   F   F   F
  0.7500000000000000  0.7500000000000000  0.9970504821327282   F   F   F
  0.0000000000000000  0.0000000000000000  0.0486670448099815   F   F   F
  0.5000000000000000  0.0000000000000000  0.0486670448099815   F   F   F
  0.0000000000000000  0.5000000000000000  0.0486670448099815   F   F   F
  0.5000000000000000  0.5000000000000000  0.0486670448099815   F   F   F
  0.2501328287630036  0.2501328287630036  0.0995160016806553   T   T   T
  0.7501461312639394  0.2501512000641868  0.0999240332827638   T   T   T
  0.2501512000641868  0.7501461312639394  0.0999240332827638   T   T   T
  0.7501586433572127  0.7501586433572127  0.1006048643627483   T   T   T
 -0.0015075549288784 -0.0015075549288784  0.1503932829258733   T   T   T
  0.5020099988380091 -0.0014867579929910  0.1503949752306654   T   T   T
 -0.0014867579929910  0.5020099988380091  0.1503949752306654   T   T   T
  0.5019880071987873  0.5019880071987873  0.1503960907717987   T   T   T
  0.2501981264015126  0.2501981264015126  0.2035273492648642   T   T   T
 
  0.00000000E+00  0.00000000E+00  0.00000000E+00
  0.00000000E+00  0.00000000E+00  0.00000000E+00
  0.00000000E+00  0.00000000E+00  0.00000000E+00
  0.00000000E+00  0.00000000E+00  0.00000000E+00
  0.00000000E+00  0.00000000E+00  0.00000000E+00
  0.00000000E+00  0.00000000E+00  0.00000000E+00
  0.00000000E+00  0.00000000E+00  0.00000000E+00
  0.00000000E+00  0.00000000E+00  0.00000000E+00
  0.00000000E+00  0.00000000E+00  0.00000000E+00
  0.00000000E+00  0.00000000E+00  0.00000000E+00
  0.00000000E+00  0.00000000E+00  0.00000000E+00
  0.00000000E+00  0.00000000E+00  0.00000000E+00
  0.00000000E+00  0.00000000E+00  0.00000000E+00
  0.00000000E+00  0.00000000E+00  0.00000000E+00
  0.00000000E+00  0.00000000E+00  0.00000000E+00
  0.00000000E+00  0.00000000E+00  0.00000000E+00
  0.00000000E+00  0.00000000E+00  0.00000000E+00
