Cu                                      
   1.00000000000000     
     5.1477373670380668    0.0000000000000000    0.0000000000000000
     0.0000000000000000    5.1477373670380668    0.0000000000000000
     0.0000000000000000    0.0000000000000000   28.4600000000000009
   Cu
    16
Selective dynamics
Direct
  0.2500000000000000  0.2500000000000000  0.0040758959943759   F   F   F
  0.7500000000000000  0.2500000000000000  0.0040758959943759   F   F   F
  0.2500000000000000  0.7500000000000000  0.0040758959943759   F   F   F
  0.7500000000000000  0.7500000000000000  0.0040758959943759   F   F   F
  0.0000000000000000  0.0000000000000000  0.0680252986647929   F   F   F
  0.5000000000000000  0.0000000000000000  0.0680252986647929   F   F   F
  0.0000000000000000  0.5000000000000000  0.0680252986647929   F   F   F
  0.5000000000000000  0.5000000000000000  0.0680252986647929   F   F   F
  0.2500000000000000  0.2500000000000000  0.1322423666706962   T   T   T
  0.7500000000000000  0.2500000000000000  0.1322423666706962   T   T   T
  0.2500000000000000  0.7500000000000000  0.1322423666706962   T   T   T
  0.7500000000000000  0.7500000000000000  0.1322423666706962   T   T   T
  0.0000000000000000  0.0000000000000000  0.1941951207846917   T   T   T
  0.5000000000000000 -0.0000000000000000  0.1941951207846917   T   T   T
 -0.0000000000000000  0.5000000000000000  0.1941951207846917   T   T   T
  0.5000000000000000  0.5000000000000000  0.1941951207846917   T   T   T
 
  0.00000000E+00  0.00000000E+00  0.00000000E+00
  0.00000000E+00  0.00000000E+00  0.00000000E+00
  0.00000000E+00  0.00000000E+00  0.00000000E+00
  0.00000000E+00  0.00000000E+00  0.00000000E+00
  0.00000000E+00  0.00000000E+00  0.00000000E+00
  0.00000000E+00  0.00000000E+00  0.00000000E+00
  0.00000000E+00  0.00000000E+00  0.00000000E+00
  0.00000000E+00  0.00000000E+00  0.00000000E+00
  0.00000000E+00  0.00000000E+00  0.00000000E+00
  0.00000000E+00  0.00000000E+00  0.00000000E+00
  0.00000000E+00  0.00000000E+00  0.00000000E+00
  0.00000000E+00  0.00000000E+00  0.00000000E+00
  0.00000000E+00  0.00000000E+00  0.00000000E+00
  0.00000000E+00  0.00000000E+00  0.00000000E+00
  0.00000000E+00  0.00000000E+00  0.00000000E+00
  0.00000000E+00  0.00000000E+00  0.00000000E+00
