Cu Ag                                   
   1.00000000000000     
     5.1477373670380668    0.0000000000000000    0.0000000000000000
     0.0000000000000000    5.1477373670380668    0.0000000000000000
     0.0000000000000000    0.0000000000000000   35.2599999999999980
   Cu   Ag
    16     1
Selective dynamics
Direct
  0.2500000000000000  0.2500000000000000  0.9970504821327282   F   F   F
  0.7500000000000000  0.2500000000000000  0.9970504821327282   F   F   F
  0.2500000000000000  0.7500000000000000  0.9970504821327282   F   F   F
  0.7500000000000000  0.7500000000000000  0.9970504821327282   F   F   F
  0.0000000000000000  0.0000000000000000  0.0486670448099815   F   F   F
  0.5000000000000000  0.0000000000000000  0.0486670448099815   F   F   F
  0.0000000000000000  0.5000000000000000  0.0486670448099815   F   F   F
  0.5000000000000000  0.5000000000000000  0.0486670448099815   F   F   F
  0.2500181612898160  0.2472245634273378  0.0998411284312724   T   T   T
  0.7500216941779527  0.2473428464097722  0.1002814420263149   T   T   T
  0.2500180570545751  0.7527886837486690  0.0998413021425648   T   T   T
  0.7500218262403138  0.7526713779930958  0.1002815152589207   T   T   T
  0.0033548052178816  0.0000111656672956  0.1517162552522819   T   T   T
  0.4967099026373916  0.0000112512850095  0.1517160749073057   T   T   T
  0.9940984243173006  0.5000106783068077  0.1492421582509280   T   T   T
  0.5059670783560506  0.5000106573517229  0.1492395761601841   T   T   T
  0.2500646667019382  0.5000086357249103  0.2089988421556699   T   T   T
 
  0.00000000E+00  0.00000000E+00  0.00000000E+00
  0.00000000E+00  0.00000000E+00  0.00000000E+00
  0.00000000E+00  0.00000000E+00  0.00000000E+00
  0.00000000E+00  0.00000000E+00  0.00000000E+00
  0.00000000E+00  0.00000000E+00  0.00000000E+00
  0.00000000E+00  0.00000000E+00  0.00000000E+00
  0.00000000E+00  0.00000000E+00  0.00000000E+00
  0.00000000E+00  0.00000000E+00  0.00000000E+00
  0.00000000E+00  0.00000000E+00  0.00000000E+00
  0.00000000E+00  0.00000000E+00  0.00000000E+00
  0.00000000E+00  0.00000000E+00  0.00000000E+00
  0.00000000E+00  0.00000000E+00  0.00000000E+00
  0.00000000E+00  0.00000000E+00  0.00000000E+00
  0.00000000E+00  0.00000000E+00  0.00000000E+00
  0.00000000E+00  0.00000000E+00  0.00000000E+00
  0.00000000E+00  0.00000000E+00  0.00000000E+00
  0.00000000E+00  0.00000000E+00  0.00000000E+00
