Cu  H                                   
   1.00000000000000     
     5.1477373670380668    0.0000000000000000    0.0000000000000000
     0.0000000000000000    5.1477373670380668    0.0000000000000000
     0.0000000000000000    0.0000000000000000   29.5600000000000023
   Cu   H 
    16     1
Selective dynamics
Direct
  0.2500000000000000  0.2500000000000000  0.9890392422192136   F   F   F
  0.7500000000000000  0.2500000000000000  0.9890392422192136   F   F   F
  0.2500000000000000  0.7500000000000000  0.9890392422192136   F   F   F
  0.7500000000000000  0.7500000000000000  0.9890392422192136   F   F   F
  0.0000000000000000  0.0000000000000000  0.0506089309878206   F   F   F
  0.5000000000000000  0.0000000000000000  0.0506089309878206   F   F   F
  0.0000000000000000  0.5000000000000000  0.0506089309878206   F   F   F
  0.5000000000000000  0.5000000000000000  0.0506089309878206   F   F   F
  0.2492620210382633  0.2492620210382633  0.1123984459264589   T   T   T
  0.7507379789617366  0.2492620210382633  0.1123984459264589   T   T   T
  0.2492620210382633  0.7507379789617366  0.1123984459264589   T   T   T
  0.7507379789617366  0.7507379789617366  0.1123984459264589   T   T   T
  0.0000000000000000  0.0000000000000000  0.1736139542282276   T   T   T
  0.5000000000000000  0.0000000000000000  0.1732193063801180   T   T   T
  0.0000000000000000  0.5000000000000000  0.1732193063801180   T   T   T
  0.5000000000000000  0.5000000000000000  0.1710017232883279   T   T   T
  0.0000000000000000  0.0000000000000000  0.2249915151963570   T   T   T
 
  0.00000000E+00  0.00000000E+00  0.00000000E+00
  0.00000000E+00  0.00000000E+00  0.00000000E+00
  0.00000000E+00  0.00000000E+00  0.00000000E+00
  0.00000000E+00  0.00000000E+00  0.00000000E+00
  0.00000000E+00  0.00000000E+00  0.00000000E+00
  0.00000000E+00  0.00000000E+00  0.00000000E+00
  0.00000000E+00  0.00000000E+00  0.00000000E+00
  0.00000000E+00  0.00000000E+00  0.00000000E+00
  0.00000000E+00  0.00000000E+00  0.00000000E+00
  0.00000000E+00  0.00000000E+00  0.00000000E+00
  0.00000000E+00  0.00000000E+00  0.00000000E+00
  0.00000000E+00  0.00000000E+00  0.00000000E+00
  0.00000000E+00  0.00000000E+00  0.00000000E+00
  0.00000000E+00  0.00000000E+00  0.00000000E+00
  0.00000000E+00  0.00000000E+00  0.00000000E+00
  0.00000000E+00  0.00000000E+00  0.00000000E+00
  0.00000000E+00  0.00000000E+00  0.00000000E+00
