Cu Ag                                   
   1.00000000000000     
     5.1477373670380668    0.0000000000000000    0.0000000000000000
     0.0000000000000000    5.1477373670380668    0.0000000000000000
     0.0000000000000000    0.0000000000000000   35.2599999999999980
   Cu   Ag
    16     1
Selective dynamics
Direct
  0.2500000000000000  0.2500000000000000  0.9970504821327281   F   F   F
  0.7500000000000000  0.2500000000000000  0.9970504821327281   F   F   F
  0.2500000000000000  0.7500000000000000  0.9970504821327281   F   F   F
  0.7500000000000000  0.7500000000000000  0.9970504821327281   F   F   F
  0.0000000000000000  0.0000000000000000  0.0486670448099815   F   F   F
  0.5000000000000000  0.0000000000000000  0.0486670448099815   F   F   F
  0.0000000000000000  0.5000000000000000  0.0486670448099815   F   F   F
  0.5000000000000000  0.5000000000000000  0.0486670448099815   F   F   F
  0.2500183460617799  0.2409675112051525  0.1001405060881258   T   T   T
  0.7500207290194867  0.2396290059905773  0.1008011820952467   T   T   T
  0.2500171514404345  0.7457599907695731  0.0996606912337368   T   T   T
  0.7500194916604165  0.7458310534996812  0.1001623504447103   T   T   T
  1.0025001751553002 -0.0143533907291863  0.1520954040055102   T   T   T
  0.4975627179266001 -0.0143556490455213  0.1520947288580067   T   T   T
  0.9954532161545092  0.4853921932626367  0.1495610416917551   T   T   T
  0.5046081156726486  0.4853859835292078  0.1495596358743082   T   T   T
  0.2500535389641024  0.6709715313537521  0.2055050858936944   T   T   T
 
             NaN             NaN             NaN
             NaN             NaN             NaN
             NaN             NaN             NaN
             NaN             NaN             NaN
             NaN             NaN             NaN
             NaN             NaN             NaN
             NaN             NaN             NaN
             NaN             NaN             NaN
             NaN             NaN             NaN
             NaN             NaN             NaN
             NaN             NaN             NaN
             NaN             NaN             NaN
             NaN             NaN             NaN
             NaN             NaN             NaN
             NaN             NaN             NaN
             NaN             NaN             NaN
             NaN             NaN             NaN
