Cu Ag 
 1.0000000000000000
     5.1477373670380668    0.0000000000000000    0.0000000000000000
     0.0000000000000000    5.1477373670380668    0.0000000000000000
     0.0000000000000000    0.0000000000000000   35.2599999999999980
  16   1
Selective dynamics
Cartesian
  1.2869343417595167  1.2869343417595167 35.1559999999999917   F   F   F
  3.8608030252785501  1.2869343417595167 35.1559999999999917   F   F   F
  1.2869343417595167  3.8608030252785501 35.1559999999999917   F   F   F
  3.8608030252785501  3.8608030252785501 35.1559999999999917   F   F   F
  0.0000000000000000  0.0000000000000000  1.7159999999999476   F   F   F
  2.5738686835190334  0.0000000000000000  1.7159999999999476   F   F   F
  0.0000000000000000  2.5738686835190334  1.7159999999999476   F   F   F
  2.5738686835190334  2.5738686835190334  1.7159999999999476   F   F   F
  1.2880814769803588  1.2869695665290437  3.5206478998011135   T   T   T
  3.8617833262073380  1.2869787265674966  3.5431287446247599   T   T   T
  1.2880065432619081  3.8608350492136712  3.5111210558114161   T   T   T
  3.8617177895001409  3.8608368853090589  3.5270461528009518   T   T   T
 -0.0073934154783238  0.0061231911849893  5.3023167262253628   T   T   T
  2.5845602573878552  0.0060783480680585  5.3029011643068484   T   T   T
 -0.0073723575543820  2.5678893043235527  5.3023781145701241   T   T   T
  2.5845323260022299  2.5679383677016339  5.3029586811306526   T   T   T
  1.2876899293451396  3.4319377693014026  7.1762478596542083   T   T   T
