Cu Ag 
 1.0000000000000000
     5.1477373670380668    0.0000000000000000    0.0000000000000000
     0.0000000000000000    5.1477373670380668    0.0000000000000000
     0.0000000000000000    0.0000000000000000   35.2599999999999980
  16   1
Selective dynamics
Cartesian
  1.2869343417595167  1.2869343417595167 35.1559999999999917   F   F   F
  3.8608030252785501  1.2869343417595167 35.1559999999999917   F   F   F
  1.2869343417595167  3.8608030252785501 35.1559999999999917   F   F   F
  3.8608030252785501  3.8608030252785501 35.1559999999999917   F   F   F
  0.0000000000000000  0.0000000000000000  1.7159999999999476   F   F   F
  2.5738686835190334  0.0000000000000000  1.7159999999999476   F   F   F
  0.0000000000000000  2.5738686835190334  1.7159999999999476   F   F   F
  2.5738686835190334  2.5738686835190334  1.7159999999999476   F   F   F
  1.2877107828730701  1.2874884007828069  3.5112769553681473   T   T   T
  3.8616008817586063  1.2875658892973629  3.5272828797651528   T   T   T
  1.2877714526362452  3.8614112263598726  3.5208813420024843   T   T   T
  3.8616393015932333  3.8614631207550167  3.5432712445045946   T   T   T
 -0.0076870805678646 -0.0049837592352019  5.3027570700181066   T   T   T
  2.5842845551936957 -0.0049070821273981  5.3029216941679787   T   T   T
 -0.0075972232518862  2.5809503645808354  5.3028170842206341   T   T   T
  2.5841884031701832  2.5808696115100642  5.3029646647170274   T   T   T
  1.2879013814210121  1.7167509494122646  7.1763490399941317   T   T   T
