Cu Ag                                   
   1.00000000000000     
     5.1477373670380668    0.0000000000000000    0.0000000000000000
     0.0000000000000000    5.1477373670380668    0.0000000000000000
     0.0000000000000000    0.0000000000000000   35.2599999999999980
   Cu   Ag
    16     1
Selective dynamics
Direct
  0.2500000000000000  0.2500000000000000  0.9970504821327282   F   F   F
  0.7500000000000000  0.2500000000000000  0.9970504821327282   F   F   F
  0.2500000000000000  0.7500000000000000  0.9970504821327282   F   F   F
  0.7500000000000000  0.7500000000000000  0.9970504821327282   F   F   F
  0.0000000000000000  0.0000000000000000  0.0486670448099815   F   F   F
  0.5000000000000000  0.0000000000000000  0.0486670448099815   F   F   F
  0.0000000000000000  0.5000000000000000  0.0486670448099815   F   F   F
  0.5000000000000000  0.5000000000000000  0.0486670448099815   F   F   F
  0.2500003881344398  0.2501083421470054  0.0995103656997975   T   T   T
  0.7499903490432801  0.2500993282150022  0.0999171053963104   T   T   T
  0.2500004195926496  0.7501140391992436  0.0999201335187172   T   T   T
  0.7499882881914880  0.7501104923099762  0.1006019513544934   T   T   T
 -0.0017618744780960 -0.0015493944944071  0.1503948189483986   T   T   T
  0.5017630565177909 -0.0015696361390429  0.1503947693500721   T   T   T
 -0.0017504131232300  0.5019420881481770  0.1503879368231989   T   T   T
  0.5017242354784884  0.5019244766033616  0.1503869520466981   T   T   T
  0.2500087581345419  0.2502958587776687  0.2035338992243001   T   T   T
 
  0.00000000E+00  0.00000000E+00  0.00000000E+00
  0.00000000E+00  0.00000000E+00  0.00000000E+00
  0.00000000E+00  0.00000000E+00  0.00000000E+00
  0.00000000E+00  0.00000000E+00  0.00000000E+00
  0.00000000E+00  0.00000000E+00  0.00000000E+00
  0.00000000E+00  0.00000000E+00  0.00000000E+00
  0.00000000E+00  0.00000000E+00  0.00000000E+00
  0.00000000E+00  0.00000000E+00  0.00000000E+00
  0.00000000E+00  0.00000000E+00  0.00000000E+00
  0.00000000E+00  0.00000000E+00  0.00000000E+00
  0.00000000E+00  0.00000000E+00  0.00000000E+00
  0.00000000E+00  0.00000000E+00  0.00000000E+00
  0.00000000E+00  0.00000000E+00  0.00000000E+00
  0.00000000E+00  0.00000000E+00  0.00000000E+00
  0.00000000E+00  0.00000000E+00  0.00000000E+00
  0.00000000E+00  0.00000000E+00  0.00000000E+00
  0.00000000E+00  0.00000000E+00  0.00000000E+00
