Cu Ag                                   
   1.00000000000000     
     5.1477373670380668    0.0000000000000000    0.0000000000000000
     0.0000000000000000    5.1477373670380668    0.0000000000000000
     0.0000000000000000    0.0000000000000000   35.2599999999999980
   Cu   Ag
    16     1
Selective dynamics
Direct
  0.2500000000000000  0.2500000000000000  0.9970504821327282   F   F   F
  0.7500000000000000  0.2500000000000000  0.9970504821327282   F   F   F
  0.2500000000000000  0.7500000000000000  0.9970504821327282   F   F   F
  0.7500000000000000  0.7500000000000000  0.9970504821327282   F   F   F
  0.0000000000000000  0.0000000000000000  0.0486670448099815   F   F   F
  0.5000000000000000  0.0000000000000000  0.0486670448099815   F   F   F
  0.0000000000000000  0.5000000000000000  0.0486670448099815   F   F   F
  0.5000000000000000  0.5000000000000000  0.0486670448099815   F   F   F
  0.2501328287630002  0.2501328287630002  0.0995160016806551   T   T   T
  0.7501461312639393  0.2501512000641881  0.0999240332827611   T   T   T
  0.2501512000641881  0.7501461312639393  0.0999240332827611   T   T   T
  0.7501586433572101  0.7501586433572101  0.1006048643627508   T   T   T
  0.9984924450711219  0.9984924450711219  0.1503932829258758   T   T   T
  0.5020099988380125  0.9985132420070073  0.1503949752306681   T   T   T
  0.9985132420070073  0.5020099988380125  0.1503949752306681   T   T   T
  0.5019880071987899  0.5019880071987899  0.1503960907717996   T   T   T
  0.2501981264015143  0.2501981264015143  0.2023929193159164   T   T   T
 
  0.00000000E+00  0.00000000E+00  0.00000000E+00
  0.00000000E+00  0.00000000E+00  0.00000000E+00
  0.00000000E+00  0.00000000E+00  0.00000000E+00
  0.00000000E+00  0.00000000E+00  0.00000000E+00
  0.00000000E+00  0.00000000E+00  0.00000000E+00
  0.00000000E+00  0.00000000E+00  0.00000000E+00
  0.00000000E+00  0.00000000E+00  0.00000000E+00
  0.00000000E+00  0.00000000E+00  0.00000000E+00
  0.00000000E+00  0.00000000E+00  0.00000000E+00
  0.00000000E+00  0.00000000E+00  0.00000000E+00
  0.00000000E+00  0.00000000E+00  0.00000000E+00
  0.00000000E+00  0.00000000E+00  0.00000000E+00
  0.00000000E+00  0.00000000E+00  0.00000000E+00
  0.00000000E+00  0.00000000E+00  0.00000000E+00
  0.00000000E+00  0.00000000E+00  0.00000000E+00
  0.00000000E+00  0.00000000E+00  0.00000000E+00
  0.00000000E+00  0.00000000E+00  0.00000000E+00
