Cu Ag 
 1.0000000000000000
     5.1477373670380668    0.0000000000000000    0.0000000000000000
     0.0000000000000000    5.1477373670380668    0.0000000000000000
     0.0000000000000000    0.0000000000000000   35.2599999999999980
  16   1
Selective dynamics
Cartesian
  1.2869343417595167  1.2869343417595167 35.1559999999999917   F   F   F
  3.8608030252785501  1.2869343417595167 35.1559999999999917   F   F   F
  1.2869343417595167  3.8608030252785501 35.1559999999999917   F   F   F
  3.8608030252785501  3.8608030252785501 35.1559999999999917   F   F   F
  0.0000000000000000  0.0000000000000000  1.7159999999999476   F   F   F
  2.5738686835190334  0.0000000000000000  1.7159999999999476   F   F   F
  0.0000000000000000  2.5738686835190334  1.7159999999999476   F   F   F
  2.5738686835190334  2.5738686835190334  1.7159999999999476   F   F   F
  1.2878034563998921  1.2873586922193661  3.5136196914763889   T   T   T
  3.8616464928707890  1.2874190986148963  3.5312443459800544   T   T   T
  1.2878302252926610  3.8612671820733224  3.5184412704547170   T   T   T
  3.8616589235699603  3.8613065618935272  3.5392149715786840   T   T   T
 -0.0076136642954794 -0.0022070216301541  5.3026469840699209   T   T   T
  2.5843534807422355 -0.0021607245785340  5.3029165617026965   T   T   T
 -0.0075410068275102  2.5776850995165148  5.3027073418080066   T   T   T
  2.5842743838781947  2.5776368005579564  5.3029631688204342   T   T   T
  1.2878485184020438  2.1455476543845493  7.1763237449091504   T   T   T
