Cu Ag 
 1.0000000000000000
     5.1477373670380668    0.0000000000000000    0.0000000000000000
     0.0000000000000000    5.1477373670380668    0.0000000000000000
     0.0000000000000000    0.0000000000000000   35.2599999999999980
  16   1
Selective dynamics
Cartesian
  1.2869343417595167  1.2869343417595167 35.1559999999999917   F   F   F
  3.8608030252785501  1.2869343417595167 35.1559999999999917   F   F   F
  1.2869343417595167  3.8608030252785501 35.1559999999999917   F   F   F
  3.8608030252785501  3.8608030252785501 35.1559999999999917   F   F   F
  0.0000000000000000  0.0000000000000000  1.7159999999999476   F   F   F
  2.5738686835190334  0.0000000000000000  1.7159999999999476   F   F   F
  0.0000000000000000  2.5738686835190334  1.7159999999999476   F   F   F
  2.5738686835190334  2.5738686835190334  1.7159999999999476   F   F   F
  1.2879888034535367  1.2870992750924846  3.5183051636928719   T   T   T
  3.8617377150951553  1.2871255172499632  3.5391672784098582   T   T   T
  1.2879477706054925  3.8609790935002217  3.5135611273591829   T   T   T
  3.8616981675234139  3.8609934441705485  3.5311024257268624   T   T   T
 -0.0074668317507090  0.0033464535799415  5.3024268121735485   T   T   T
  2.5844913318393155  0.0033319905191943  5.3029062967721305   T   T   T
 -0.0074285739787580  2.5711545693878732  5.3024878569827516   T   T   T
  2.5844463452942184  2.5711711786537417  5.3029601770272459   T   T   T
  1.2877427923641078  3.0031410643291183  7.1762731547391896   T   T   T
